Version identifier: 22.1.1.0 | 2022-11-28 | 9160aff4d
CPXPARAM_ClockType                               1
CPXPARAM_Read_DataCheck                          1
CPXPARAM_Threads                                 1
CPXPARAM_TimeLimit                               7200
CPXPARAM_MIP_Tolerances_AbsMIPGap                0
CPXPARAM_MIP_Tolerances_MIPGap                   0
CPXPARAM_MIP_Tolerances_Integrality              0
Tried aggregator 6 times.
MIP Presolve eliminated 7038 rows and 2157 columns.
MIP Presolve modified 958 coefficients.
Aggregator did 48907 substitutions.
Reduced MIP has 590534 rows, 234824 columns, and 1944271 nonzeros.
Reduced MIP has 234824 binaries, 0 generals, 0 SOSs, and 0 indicators.
Presolve time = 8.75 sec. (4616.05 ticks)
Found incumbent of value 14503.000000 after 15.62 sec. (8166.49 ticks)
Probing time = 0.56 sec. (147.53 ticks)
Tried aggregator 1 time.
Detecting symmetries...
Reduced MIP has 590534 rows, 234824 columns, and 1944271 nonzeros.
Reduced MIP has 234824 binaries, 0 generals, 0 SOSs, and 0 indicators.
Presolve time = 7.13 sec. (3751.05 ticks)
Probing time = 0.48 sec. (140.00 ticks)
Clique table members: 652103.
MIP emphasis: balance optimality and feasibility.
MIP search method: dynamic search.
Parallel mode: none, using 1 thread.
Root relaxation solution time = 45.39 sec. (9809.42 ticks)

        Nodes                                         Cuts/
   Node  Left     Objective  IInf  Best Integer    Best Bound    ItCnt     Gap

*     0+    0                        14503.0000    47217.0000           225.57%
      0     0    47217.0000 49058    14503.0000    47217.0000    13347  225.57%
      0     0    47217.0000 75166    14503.0000   Cuts: 10000   137924  225.57%
